c ren 1 -> 1
c ren 2 -> 2
c ren 3 -> 3
c ren 4 -> 4
c ren 5 -> 5
c ren 6 -> 6
c ren 7 -> 7
c ren 8 -> 8
c ren 9 -> 9
c ren 10 -> 10
c ren 11 -> 11
c ren 12 -> 12
c ren 15 -> 13
c ren 16 -> 14
c ren 17 -> 15
c ren 18 -> 16
c ren 20 -> 17
c ren 23 -> 18
c ren 24 -> 19
c ren 25 -> 20
c ren 26 -> 21
c ren 27 -> 22
c ren 28 -> 23
c ren 31 -> 24
c ren 33 -> 25
c ren 35 -> 26
c ren 36 -> 27
c ren 42 -> 28
c ren 44 -> 29
c ren 46 -> 30
c ren 48 -> 31
c ren 52 -> 32
c ren 55 -> 33
c ren 61 -> 34
c ren 62 -> 35
c ren 65 -> 36
c ren 70 -> 37
c ren 72 -> 38
c ren 76 -> 39
c ren 78 -> 40
c ren 79 -> 41
c ren 81 -> 42
c ren 84 -> 43
c ren 85 -> 44
c ren 88 -> 45
c ren 89 -> 46
c ren 92 -> 47
c ren 93 -> 48
c ren 97 -> 49
c ren 101 -> 50
c ren 102 -> 51
c ren 106 -> 52
c ren 126 -> 53
c ren 135 -> 54
c ren 138 -> 55
c ren 141 -> 56
c ren 145 -> 57
c ren 146 -> 58
c ren 147 -> 59
p cnf 59 201
e 21 31 48 54 0
a 1 2 3 4 5 6 7 8 9 10 11 12 13 15 17 18 19 0
e 14 16 20 22 23 24 25 26 27 28 29 30 32 33 34 35 36 37 38 39 40 41 42 43 44 45 46 47 49 50 51 52 53 55 56 57 58 59 0
-5 15 27 0
1 2 3 4 5 6 -8 9 -10 15 -19 -51 -52 0
-6 -15 -27 0
-7 15 27 0
5 6 7 8 -15 27 0
-8 -15 -27 0
5 6 7 8 -15 20 0
-8 35 0
-8 15 27 0
-5 -15 -27 0
-17 -31 43 0
-7 15 20 0
1 2 3 4 5 6 -7 9 -10 15 -19 -51 -52 0
-6 14 0
-8 15 42 0
-8 22 0
-3 -11 -27 -34 0
-8 -15 -42 0
-8 15 30 0
-7 15 23 0
-4 -9 -27 -34 0
17 48 51 0
1 2 3 4 5 6 7 8 9 -10 -15 -19 -46 -57 0
-5 22 0
-8 14 0
5 6 7 8 15 -27 0
5 6 7 8 -15 23 0
17 31 43 0
5 6 7 8 -15 42 0
-1 9 10 11 -12 -23 -58 0
1 2 -13 -18 25 0
-8 15 23 0
-8 -15 -23 0
-8 -15 -20 0
-17 -21 55 0
13 18 52 0
-7 15 42 0
1 2 3 4 5 6 9 10 11 -12 -19 -33 -44 -45 -49 0
-7 15 30 0
-6 15 42 0
-3 12 -27 -34 0
27 34 0
-17 33 -48 0
-7 45 0
5 6 7 8 15 -42 0
41 42 0
-3 -9 -27 -34 0
-3 -10 -27 -34 0
-17 -21 36 0
17 21 36 0
-4 -9 -20 -40 0
1 2 3 4 -9 -41 -42 0
1 2 -13 -18 37 0
-7 15 44 0
-7 -15 -23 0
-7 22 0
-1 18 37 0
5 6 7 8 15 -23 0
-17 -31 53 0
-3 19 39 0
20 40 0
23 58 0
-1 16 18 0
3 4 5 6 -8 -16 -19 -55 58 0
1 2 -6 7 8 -9 -24 -25 -26 41 0
-6 19 26 0
3 4 5 6 -19 26 0
9 10 11 12 13 -14 -24 -25 -26 41 -48 0
-7 14 0
1 2 -5 7 8 -9 -24 -25 -26 41 0
-1 3 4 5 6 34 -35 -36 -37 -39 0
5 6 7 8 15 -20 0
5 6 7 8 15 -30 0
-1 18 47 0
-7 -15 -30 0
13 18 25 0
-4 -10 -27 -34 0
1 2 -13 -18 47 0
-2 12 -20 -40 0
3 4 5 6 -8 34 -36 -37 -39 0
3 4 5 6 7 8 9 -19 -32 -53 59 0
-4 19 39 0
-6 -15 -20 0
-5 -15 -42 0
17 33 48 0
-3 -9 -20 -40 0
-2 16 18 0
17 38 54 0
3 4 5 6 -19 50 0
3 4 5 6 -19 39 0
9 10 11 12 13 -21 34 -35 -36 -37 -39 0
1 2 -6 7 8 -9 34 -36 -37 -39 0
-3 12 -20 -40 0
-1 -11 -27 -34 0
-1 12 -27 -34 0
-1 -9 -27 -34 0
-2 9 10 11 -12 -23 -58 0
-6 -15 -23 0
-2 18 32 0
1 2 -4 5 6 7 8 -9 40 -43 -47 -50 0
13 16 18 0
-1 -10 -27 -34 0
-1 9 10 11 -12 -30 -59 0
-4 -11 -27 -34 0
3 4 5 6 9 -16 -19 -22 -55 58 0
-5 19 26 0
5 6 7 8 9 10 11 12 13 -31 40 -43 -47 -50 0
-1 12 -20 -40 0
1 2 -4 7 8 -9 34 -35 -36 -37 -39 0
-3 -11 -20 -40 0
3 4 5 6 9 -14 -24 -25 -26 41 0
17 24 48 0
-2 12 -27 -34 0
13 18 46 0
1 2 -13 -18 52 0
-1 -11 -20 -40 0
-2 9 10 11 -12 -30 -59 0
-7 -15 -27 0
-5 45 0
-5 15 23 0
-2 -11 -27 -34 0
-5 14 0
-2 -10 -27 -34 0
1 2 -13 -18 28 0
-2 -9 -27 -34 0
1 2 3 4 5 6 7 8 9 10 12 -15 -19 -28 -29 0
-1 -9 -20 -40 0
-17 38 -54 0
-6 45 0
3 4 5 6 -7 34 -36 -37 -39 0
-1 -10 -20 -40 0
13 18 32 0
1 2 -5 7 8 -9 34 -36 -37 -39 0
-4 -11 -20 -40 0
13 18 37 0
1 2 -3 5 6 7 8 -9 40 -43 -47 -50 0
17 29 54 0
1 2 -13 -18 46 0
-5 15 30 0
-7 -15 -20 0
-6 -15 -30 0
-2 -10 -20 -40 0
-2 -9 -20 -40 0
3 4 5 6 7 8 9 40 -43 -47 -50 0
-2 3 4 5 6 7 8 40 -43 -47 -50 0
1 2 -3 7 8 -9 34 -35 -36 -37 -39 0
-2 -11 -20 -40 0
-7 -15 -42 0
-6 22 0
1 2 3 4 10 -11 -41 -42 0
3 4 5 6 -7 -24 -25 -26 41 0
17 54 57 0
13 18 49 0
3 4 5 6 -8 -24 -25 -26 41 0
-5 35 0
-5 15 20 0
1 2 -13 -18 49 0
1 2 3 4 10 12 -41 -42 0
-6 15 23 0
-6 35 0
-5 -15 -20 0
-6 15 27 0
5 6 7 8 -15 30 0
13 18 47 0
-6 -15 -42 0
17 21 55 0
-4 12 -27 -34 0
13 18 56 0
-17 24 -48 0
1 2 -13 -18 56 0
-2 18 37 0
-8 15 20 0
-8 45 0
-8 15 44 0
-3 19 50 0
-5 -15 -23 0
-17 -48 51 0
-1 18 32 0
-2 3 4 5 6 34 -35 -36 -37 -39 0
-5 15 42 0
3 4 5 6 9 34 -35 -36 -37 -39 0
30 59 0
-7 35 0
-8 -15 -30 0
-3 -10 -20 -40 0
13 18 28 0
-1 3 4 5 6 7 8 40 -43 -47 -50 0
-4 -10 -20 -40 0
-4 19 50 0
-6 15 30 0
1 2 3 4 5 6 7 8 9 10 -11 -15 -19 -28 -29 0
17 31 53 0
-4 12 -20 -40 0
-5 19 39 0
-17 29 -54 0
-6 19 39 0
-6 15 20 0
-17 -54 57 0
-2 18 47 0
-5 -15 -30 0
1 2 3 4 5 6 7 8 9 10 11 -12 -15 -19 -38 -56 0
